NAME : OMNETRUN
COMMENT : 524.61
TYPE : CVRP
DIMENSION : 21
EDGE_WEIGHT_TYPE : EUC_2D
CAPACITY : 21
NODE_COORD_SECTION
1 0.107093 -0.77924
2 103.681 -214.253
3 147.787 -3698.1
4 218.238 -5878.15
5 453.466 -1405.9
6 291.48 -2133.12
7 407.733 -4044.11
8 330.142 -5435.57
9 502.86 -785.851
10 556.325 -1794.4
11 520.49 -3441.56
12 725.337 -4433.49
13 582.92 -6000.55
14 958.453 -386.575
15 938.396 -1905.81
16 934.474 -2263.39
17 961.204 -2910.36
18 789.553 -3989.98
19 815.13 -5124.68
20 1106.45 -901.109
21 1014.76 -1351.81
DEMAND_SECTION
1 0
2 1
3 1
4 1
5 1
6 1
7 1
8 1
9 1
10 1
11 1
12 1
13 1
14 1
15 1
16 1
17 1
18 1
19 1
20 1
21 1
DEPOT_SECTION
1
-1
EOF
